
%FILE DATA:	Soccer Computational Problem for MiniZinc Models	%
%AUTHOR:	Jack Wall	%
%CONTACT:  	116397063@umail.ucc.ie			%
%LAST UPDATE:	03/03/2020, 12:12:28						%
%DESCRIPTION: 	63 games played with 9 games left				%


n=9; %number of teams

%Games to play
games=[|6,4|6,3|5,6|4,2|4,9|4,6|6,7|5,7|7,9|];

%Initial points
iPoints=[17,15,20,22,20,16,20,18,22];

%POSITION CONSTRAINTS
% [|teamID, operator, position|...]
% operators index:
%  1 for =  operator
%  2 for >  operator
%  3 for >= operator
%  4 for <  operator
%  5 for <= operator
positionConstraints=[|4,5,1|9,4,3|6,3,3|];